72 67 10 153 59 86 93 118 182 45 77 33 13 12 96 139 103 141 74 100 81 130 112 120 125 109 149 152 95 129 30 173 
49 46 34 137 174 26 140 18 115 123 121 124 135 1 111 157 176 114 68 
178 167 40 119 38 166 102 98 76 8 78 134 22 191 150 43 69 151 97 31 181 172 75 168 154 21 41 51 200 
177 87 163 
187 104 64 198 164 57 113 131 169 192 84 27 53 56 185 180 37 55 85 88 39 170 165 58 
99 94 70 162 60 73 32 50 132 62 186 146 158 101 91 197 44 106 159 83 14 36 122 
171 63 108 133 16 61 52 105 
144 42 6 184 19 24 92 160 117 82 17 7 66 
28 196 142 116 15 3 199 189 47 175 155 89 179 4 195 156 79 
107 183 65 35 
136 188 110 148 29 2 138 143 126 128 48 145 25 90 193 20 71 127 5 194 190 80 161 54 147 9 23 11 
